30
2 1 5
4 2 7
4 3 2
5 0 8
5 2 4
6 0 6
6 2 6
6 4 5
6 5 5
7 2 5
7 3 3
7 4 9
7 5 4
8 3 6
8 6 10
8 7 1
9 3 1
9 6 5
9 8 8
10 0 4
10 2 2
10 4 5
10 5 1
10 7 10
10 8 10
10 9 10
11 0 5
11 3 6
11 4 6
11 7 1
11 9 7
11 10 2
12 0 5
12 5 8
12 7 7
12 9 8
12 11 5
13 1 1
13 2 1
13 3 2
13 7 3
13 10 1
13 11 1
14 2 2
14 3 4
14 6 1
14 8 1
14 12 4
14 13 2
15 1 3
15 2 2
15 3 2
15 5 2
15 10 6
15 11 10
15 14 8
16 0 5
16 1 6
16 2 4
16 6 2
16 7 8
16 8 8
16 10 10
16 13 1
17 1 10
17 4 2
17 5 1
17 7 8
17 8 8
17 10 4
17 13 6
18 3 3
18 4 1
18 9 6
18 10 5
18 12 1
18 14 8
18 17 4
19 1 6
19 2 2
19 4 7
19 8 8
19 9 5
19 10 8
19 12 1
19 14 10
19 15 3
19 17 3
19 18 6
20 1 7
20 2 10
20 3 7
20 7 2
20 8 2
20 10 5
20 13 2
20 14 4
20 18 5
20 19 5
21 2 5
21 3 9
21 4 4
21 5 4
21 6 10
21 13 7
21 14 7
21 15 7
21 16 8
21 17 7
21 19 1
22 1 7
22 8 2
22 9 9
22 10 10
22 11 2
22 13 9
22 14 9
22 15 2
22 16 2
22 19 5
22 20 5
22 21 9
23 0 4
23 1 6
23 3 3
23 5 3
23 6 7
23 8 5
23 12 4
23 13 1
23 15 8
23 16 6
23 17 9
23 21 2
23 22 10
24 0 8
24 1 6
24 2 1
24 5 10
24 6 10
24 10 8
24 12 8
24 13 8
24 14 10
24 15 3
24 16 9
24 21 8
25 1 4
25 3 6
25 6 6
25 10 9
25 11 5
25 13 1
25 15 7
25 16 10
25 19 2
25 24 5
26 1 5
26 4 9
26 5 2
26 8 8
26 9 4
26 12 1
26 13 7
26 16 2
26 19 10
26 21 6
26 23 10
27 2 2
27 5 8
27 7 1
27 9 3
27 10 10
27 11 8
27 13 6
27 16 7
27 17 10
27 18 10
27 21 10
27 22 2
28 0 2
28 4 2
28 5 8
28 6 1
28 7 3
28 10 7
28 18 9
28 19 10
28 20 3
28 21 1
28 22 7
28 26 10
29 2 5
29 4 1
29 5 8
29 10 2
29 12 7
29 13 4
29 15 1
29 16 4
29 20 10
29 21 8
29 22 2
29 27 6
